(define-fun inv2 ((x!0 Int)
 (x!1 Int)
 (x!2 Int)
 (x!3 Int)
 (x!4 Int)
 (x!5 Int)
 (x!6 Int)) Bool
  (let ((a!1 (not (<= (+ x!2 (* (- 1) x!3) (* 250 x!4)) (- 1))))
        (a!2 (not (<= (+ x!1 (* (- 1) x!3)) 0)))
        (a!3 (not (>= (+ x!0 (* (- 1) x!4)) 0)))
        (a!4 (or (not (<= (+ x!1 x!2) 273)) (not (>= (+ x!1 x!2) 1))))
        (a!5 (or (not (>= x!0 1)) (not (<= (+ x!1 x!2) 23))))
        (a!6 (not (>= (+ (* 250 x!0)
                         (* (- 1) x!1)
                         (* (- 1) x!2)
                         x!3
                         (* (- 250) x!4))
                      (- 272))))
        (a!7 (or (not (<= x!0 0)) (not (>= (+ x!1 x!2) 523)))))
    (and (or (not (<= x!0 0)) a!1)
         (or a!2 (not (= x!6 x!5)) a!3)
         (not (<= x!0 (- 1)))
         (not (<= x!2 (- 250)))
         a!4
         (not (<= (+ x!1 x!2) (- 227)))
         a!5
         (not (<= x!4 9))
         (or (not (>= x!0 1)) a!6)
         a!7)))

